set VV := 0 1 2 3 4 5 6 7 8 9 10 11 12 13 14 15 16 17 18 19 20 ;
set VS := 0 1 2 3 4 5 6 7 8 9 10 11 12 13 14 15 16 17 18 19 20 21 22 23 24 25 26 27 28 29 30 31 32 33 34 35 36 37 38 39 40 41 42 43 44 45 46 ;
param cv := 
0 11
1 24
2 23
3 18
4 12
5 16
6 15
7 19
8 17
9 15
10 25
11 10
12 22
13 25
14 16
15 15
16 23
17 22
18 24
19 21
20 20
;
param cs := 
0 31
1 34
2 33
3 29
4 22
5 35
6 26
7 26
8 31
9 40
10 38
11 39
12 37
13 32
14 23
15 34
16 33
17 21
18 40
19 32
20 38
21 23
22 33
23 35
24 38
25 20
26 30
27 23
28 25
29 20
30 34
31 23
32 31
33 27
34 23
35 37
36 26
37 36
38 23
39 35
40 33
41 40
42 20
43 36
44 27
45 40
46 29
;
param bv:	 0 1 2 3 4 5 6 7 8 9 10 11 12 13 14 15 16 17 18 19 20 := 
		0 0 0 11 0 0 0 0 0 0 0 0 0 0 16 14 14 22 0 0 0 0 
		1 0 0 0 0 0 23 0 0 0 0 0 0 0 0 0 0 19 0 0 0 0 
		2 0 0 0 17 0 0 0 0 0 0 0 0 0 0 0 0 0 0 0 0 0 
		3 0 0 0 0 0 0 0 15 0 0 0 0 0 0 0 22 0 11 0 13 0 
		4 0 0 0 0 0 0 0 23 0 0 0 0 0 0 0 0 0 24 0 0 0 
		5 0 0 0 0 0 0 0 0 0 0 0 0 0 22 0 0 0 0 0 0 0 
		6 0 0 0 0 0 0 0 0 0 0 0 0 0 0 0 0 0 0 10 0 24 
		7 0 0 0 0 0 0 0 0 0 0 0 0 0 0 0 0 0 0 0 0 0 
		8 0 0 0 0 0 0 0 0 0 0 12 0 0 19 0 0 0 0 0 0 0 
		9 0 0 0 0 0 0 0 0 0 0 0 19 0 0 0 15 0 0 0 0 0 
		10 0 0 0 0 0 0 0 0 0 0 0 0 0 0 0 0 0 0 0 0 0 
		11 0 0 0 0 0 0 0 0 0 0 0 0 21 0 0 11 0 0 0 0 0 
		12 0 0 0 0 0 0 0 0 0 0 0 0 0 0 0 0 0 0 0 23 0 
		13 0 0 0 0 0 0 0 0 0 0 0 0 0 0 0 0 0 0 0 0 0 
		14 0 0 0 0 0 0 0 0 0 0 0 0 0 0 0 0 0 0 0 0 0 
		15 0 0 0 0 0 0 0 0 0 0 0 0 0 0 0 0 0 0 0 0 12 
		16 0 0 0 0 0 0 0 0 0 0 0 0 0 0 0 0 0 0 0 0 0 
		17 0 0 0 0 0 0 0 0 0 0 0 0 0 0 0 0 0 0 0 0 0 
		18 0 0 0 0 0 0 0 0 0 0 0 0 0 0 0 0 0 0 0 0 22 
		19 0 0 0 0 0 0 0 0 0 0 0 0 0 0 0 0 0 0 0 0 0 
		20 0 0 0 0 0 0 0 0 0 0 0 0 0 0 0 0 0 0 0 0 0 
;
param bs:	 0 1 2 3 4 5 6 7 8 9 10 11 12 13 14 15 16 17 18 19 20 21 22 23 24 25 26 27 28 29 30 31 32 33 34 35 36 37 38 39 40 41 42 43 44 45 46 := 
		0 0 0 0 0 30 0 0 0 0 20 0 0 0 0 0 0 27 0 0 0 0 39 0 0 0 0 23 0 0 26 0 0 0 0 0 39 0 0 0 0 0 0 31 0 0 0 0 
		1 0 0 0 22 0 0 20 0 0 0 0 0 0 0 0 0 0 31 0 0 0 0 0 0 0 22 0 0 0 27 0 0 0 0 0 0 0 0 0 0 0 0 0 0 0 31 32 
		2 0 0 0 0 0 0 0 0 0 0 0 0 0 0 0 0 0 0 0 22 0 0 0 0 0 0 0 0 0 0 0 0 0 0 0 0 29 0 36 0 25 0 0 0 0 0 0 
		3 0 22 0 0 0 0 0 0 0 0 0 0 0 0 0 0 0 0 0 0 0 0 29 0 0 0 0 0 0 34 0 0 0 0 0 0 0 0 0 0 0 32 0 0 0 0 0 
		4 30 0 0 0 0 33 0 0 0 39 0 36 0 0 23 0 0 0 0 0 26 0 28 0 0 0 0 0 0 0 0 0 0 0 0 30 31 20 0 0 0 0 0 0 0 0 35 
		5 0 0 0 0 33 0 0 0 0 0 34 0 0 0 0 0 0 0 0 0 0 21 0 0 0 0 0 38 0 40 0 0 0 0 0 0 0 27 27 25 0 0 0 0 0 0 0 
		6 0 20 0 0 0 0 0 0 0 0 0 0 0 40 0 0 0 26 0 0 0 0 0 26 20 0 0 37 27 26 0 0 0 0 0 0 0 28 0 0 0 0 0 0 0 0 0 
		7 0 0 0 0 0 0 0 0 0 0 0 0 35 0 0 0 0 0 0 0 0 0 0 0 0 0 0 0 0 0 0 0 0 0 0 0 0 0 0 0 0 0 0 0 0 23 0 
		8 0 0 0 0 0 0 0 0 0 0 0 0 0 0 0 0 0 25 0 0 0 21 0 0 0 0 0 0 0 0 0 0 0 0 0 0 0 0 0 0 0 0 0 0 0 0 0 
		9 20 0 0 0 39 0 0 0 0 0 20 0 0 0 0 0 0 0 0 0 0 0 26 0 0 0 0 0 0 0 0 0 23 28 0 0 0 0 0 0 0 21 0 0 0 0 0 
		10 0 0 0 0 0 34 0 0 0 20 0 36 36 0 0 0 0 0 0 29 0 0 0 0 0 0 33 0 0 0 0 0 0 0 0 0 0 0 33 0 34 0 0 0 0 0 0 
		11 0 0 0 0 36 0 0 0 0 0 36 0 0 0 0 0 0 0 0 0 0 0 0 0 0 0 0 40 0 0 0 0 0 0 0 0 34 0 35 0 0 24 0 0 0 0 0 
		12 0 0 0 0 0 0 0 35 0 0 36 0 0 31 0 0 0 0 0 0 0 39 29 0 0 0 0 0 0 0 0 0 0 0 0 0 29 0 0 0 21 23 0 0 0 0 0 
		13 0 0 0 0 0 0 40 0 0 0 0 0 31 0 0 0 0 0 0 0 0 0 0 0 0 0 0 29 0 0 0 0 0 0 0 0 0 0 0 22 0 0 0 0 0 0 0 
		14 0 0 0 0 23 0 0 0 0 0 0 0 0 0 0 0 0 0 0 0 0 0 0 0 0 0 0 23 0 0 0 0 0 23 0 32 0 0 0 0 0 0 0 0 0 0 0 
		15 0 0 0 0 0 0 0 0 0 0 0 0 0 0 0 0 0 0 0 0 0 0 0 0 0 0 0 0 0 0 0 0 0 0 0 0 0 0 0 0 0 26 0 0 0 0 0 
		16 27 0 0 0 0 0 0 0 0 0 0 0 0 0 0 0 0 0 0 0 0 0 0 0 0 0 0 0 0 0 0 0 36 0 0 0 0 0 26 0 0 0 0 0 31 0 0 
		17 0 31 0 0 0 0 26 0 25 0 0 0 0 0 0 0 0 0 0 0 0 0 29 0 0 0 0 0 0 0 0 0 0 0 0 0 0 0 0 0 0 38 0 0 0 0 0 
		18 0 0 0 0 0 0 0 0 0 0 0 0 0 0 0 0 0 0 0 0 0 23 0 0 0 0 0 0 0 0 0 0 0 0 0 0 0 0 0 0 0 0 0 0 0 0 0 
		19 0 0 22 0 0 0 0 0 0 0 29 0 0 0 0 0 0 0 0 0 0 0 0 0 0 0 0 0 0 0 28 0 0 0 0 0 27 0 0 0 0 0 0 33 0 0 0 
		20 0 0 0 0 26 0 0 0 0 0 0 0 0 0 0 0 0 0 0 0 0 0 0 0 0 0 0 24 0 0 0 0 0 0 38 0 30 0 0 0 0 0 40 0 0 0 0 
		21 39 0 0 0 0 21 0 0 21 0 0 0 39 0 0 0 0 0 23 0 0 0 0 36 0 0 0 0 0 28 0 0 0 20 0 0 35 0 0 0 0 0 22 0 23 28 0 
		22 0 0 0 29 28 0 0 0 0 26 0 0 29 0 0 0 0 29 0 0 0 0 0 0 0 0 0 0 37 28 0 0 0 0 0 35 0 0 0 0 0 0 0 0 0 33 36 
		23 0 0 0 0 0 0 26 0 0 0 0 0 0 0 0 0 0 0 0 0 0 36 0 0 0 0 0 0 28 27 0 0 0 0 0 30 0 0 0 0 0 0 0 0 0 23 0 
		24 0 0 0 0 0 0 20 0 0 0 0 0 0 0 0 0 0 0 0 0 0 0 0 0 0 0 0 0 0 0 0 0 0 0 0 0 0 0 34 0 0 0 0 0 0 0 0 
		25 0 22 0 0 0 0 0 0 0 0 0 0 0 0 0 0 0 0 0 0 0 0 0 0 0 0 0 23 0 0 20 0 0 0 0 0 0 0 0 0 0 20 0 0 0 0 0 
		26 23 0 0 0 0 0 0 0 0 0 33 0 0 0 0 0 0 0 0 0 0 0 0 0 0 0 0 0 0 0 0 0 0 0 0 25 0 0 0 0 40 0 0 0 0 38 0 
		27 0 0 0 0 0 38 37 0 0 0 0 40 0 29 23 0 0 0 0 0 24 0 0 0 0 23 0 0 0 38 0 34 0 0 26 0 0 0 0 0 0 0 0 0 0 0 0 
		28 0 0 0 0 0 0 27 0 0 0 0 0 0 0 0 0 0 0 0 0 0 0 37 28 0 0 0 0 0 0 0 0 0 0 0 0 0 0 0 0 0 0 0 0 0 0 0 
		29 26 27 0 34 0 40 26 0 0 0 0 0 0 0 0 0 0 0 0 0 0 28 28 27 0 0 0 38 0 0 0 0 25 0 0 0 0 0 0 0 0 24 0 0 0 0 0 
		30 0 0 0 0 0 0 0 0 0 0 0 0 0 0 0 0 0 0 0 28 0 0 0 0 0 20 0 0 0 0 0 0 0 0 0 0 0 0 0 0 0 0 0 0 0 0 0 
		31 0 0 0 0 0 0 0 0 0 0 0 0 0 0 0 0 0 0 0 0 0 0 0 0 0 0 0 34 0 0 0 0 0 0 0 0 0 0 0 0 0 0 0 0 0 39 0 
		32 0 0 0 0 0 0 0 0 0 23 0 0 0 0 0 0 36 0 0 0 0 0 0 0 0 0 0 0 0 25 0 0 0 0 0 0 0 0 0 0 0 0 0 0 0 0 0 
		33 0 0 0 0 0 0 0 0 0 28 0 0 0 0 23 0 0 0 0 0 0 20 0 0 0 0 0 0 0 0 0 0 0 0 0 0 0 0 0 0 0 0 0 0 0 0 0 
		34 0 0 0 0 0 0 0 0 0 0 0 0 0 0 0 0 0 0 0 0 38 0 0 0 0 0 0 26 0 0 0 0 0 0 0 0 0 0 0 0 0 0 0 0 32 0 0 
		35 39 0 0 0 30 0 0 0 0 0 0 0 0 0 32 0 0 0 0 0 0 0 35 30 0 0 25 0 0 0 0 0 0 0 0 0 0 0 0 0 0 29 33 0 0 0 24 
		36 0 0 29 0 31 0 0 0 0 0 0 34 29 0 0 0 0 0 0 27 30 35 0 0 0 0 0 0 0 0 0 0 0 0 0 0 0 0 0 0 24 0 0 0 0 0 0 
		37 0 0 0 0 20 27 28 0 0 0 0 0 0 0 0 0 0 0 0 0 0 0 0 0 0 0 0 0 0 0 0 0 0 0 0 0 0 0 0 0 0 0 24 0 0 0 29 
		38 0 0 36 0 0 27 0 0 0 0 33 35 0 0 0 0 26 0 0 0 0 0 0 0 34 0 0 0 0 0 0 0 0 0 0 0 0 0 0 0 0 38 0 38 0 0 0 
		39 0 0 0 0 0 25 0 0 0 0 0 0 0 22 0 0 0 0 0 0 0 0 0 0 0 0 0 0 0 0 0 0 0 0 0 0 0 0 0 0 0 0 0 0 0 0 0 
		40 0 0 25 0 0 0 0 0 0 0 34 0 21 0 0 0 0 0 0 0 0 0 0 0 0 0 40 0 0 0 0 0 0 0 0 0 24 0 0 0 0 0 0 20 0 0 0 
		41 0 0 0 32 0 0 0 0 0 21 0 24 23 0 0 26 0 38 0 0 0 0 0 0 0 20 0 0 0 24 0 0 0 0 0 29 0 0 38 0 0 0 0 0 0 32 22 
		42 31 0 0 0 0 0 0 0 0 0 0 0 0 0 0 0 0 0 0 0 40 22 0 0 0 0 0 0 0 0 0 0 0 0 0 33 0 24 0 0 0 0 0 20 0 0 0 
		43 0 0 0 0 0 0 0 0 0 0 0 0 0 0 0 0 0 0 0 33 0 0 0 0 0 0 0 0 0 0 0 0 0 0 0 0 0 0 38 0 20 0 20 0 0 0 0 
		44 0 0 0 0 0 0 0 0 0 0 0 0 0 0 0 0 31 0 0 0 0 23 0 0 0 0 0 0 0 0 0 0 0 0 32 0 0 0 0 0 0 0 0 0 0 0 0 
		45 0 31 0 0 0 0 0 23 0 0 0 0 0 0 0 0 0 0 0 0 0 28 33 23 0 0 38 0 0 0 0 39 0 0 0 0 0 0 0 0 0 32 0 0 0 0 0 
		46 0 32 0 0 35 0 0 0 0 0 0 0 0 0 0 0 0 0 0 0 0 0 36 0 0 0 0 0 0 0 0 0 0 0 0 24 0 29 0 0 0 22 0 0 0 0 0 
;
